
Log started (V12.10.0.0) Fri Apr  2 11:16:45 2021


Problem 'asset.lp' read.
Read time = 0.00 sec. (0.09 ticks)
New value for default parallel thread count: 1
New value for time limit in seconds: 400
Version identifier: 12.10.0.0 | 2019-11-26 | 843d4de
CPXPARAM_Threads                                 1
CPXPARAM_TimeLimit                               400
Found incumbent of value -0.868702 after 0.00 sec. (0.05 ticks)
Tried aggregator 3 times.
MIP Presolve eliminated 124 rows and 41 columns.
MIP Presolve modified 768 coefficients.
Aggregator did 331 substitutions.
Reduced MIP has 441 rows, 493 columns, and 2029 nonzeros.
Reduced MIP has 426 binaries, 45 generals, 0 SOSs, and 0 indicators.
Presolve time = 0.01 sec. (4.48 ticks)
Probing fixed 29 vars, tightened 12 bounds.
Probing time = 0.00 sec. (1.53 ticks)
Cover probing fixed 0 vars, tightened 8 bounds.
Tried aggregator 1 time.
MIP Presolve eliminated 55 rows and 55 columns.
MIP Presolve modified 8 coefficients.
Reduced MIP has 386 rows, 438 columns, and 1724 nonzeros.
Reduced MIP has 383 binaries, 33 generals, 0 SOSs, and 0 indicators.
Presolve time = 0.00 sec. (1.63 ticks)
Probing time = 0.00 sec. (1.22 ticks)
Tried aggregator 1 time.
Detecting symmetries...
MIP Presolve modified 78 coefficients.
Reduced MIP has 386 rows, 438 columns, and 1724 nonzeros.
Reduced MIP has 383 binaries, 33 generals, 0 SOSs, and 0 indicators.
Presolve time = 0.00 sec. (1.23 ticks)
Probing time = 0.00 sec. (1.21 ticks)
Clique table members: 1178.
MIP emphasis: balance optimality and feasibility.
MIP search method: dynamic search.
Parallel mode: none, using 1 thread.
Root relaxation solution time = 0.00 sec. (4.50 ticks)

        Nodes                                         Cuts/
   Node  Left     Objective  IInf  Best Integer    Best Bound    ItCnt     Gap

*     0+    0                           -0.8687       57.5413              --- 
      0     0       57.4684   184       -0.8687       57.4684      330     --- 
      0     0       57.0441   184       -0.8687     Cuts: 196      504     --- 
      0     0       57.0385   184       -0.8687     Cuts: 196      709     --- 
*     0+    0                           46.0250       57.0385            23.93%
      0     0       57.0332   184       46.0250     Cuts: 196      857   23.92%
      0     0       57.0318   184       46.0250     Cuts: 126      976   23.91%
*     0+    0                           48.0458       57.0318            18.70%
      0     0       57.0312   184       48.0458     Cuts: 100     1026   18.70%
Detecting symmetries...
      0     0       57.0309   184       48.0458      Cuts: 91     1073   18.70%
      0     0       57.0307   184       48.0458     Cuts: 102     1125   18.70%
*     0+    0                           48.0461       57.0307            18.70%
      0     0        cutoff             48.0461       57.0307     1125   18.70%
Detecting symmetries...
      0     2       57.0307   250       48.0461       57.0306     1125   18.70%
Elapsed time = 0.15 sec. (149.94 ticks, tree = 0.01 MB, solutions = 3)
*    40+   34                           49.9404       57.0306            14.20%
*    70+   60                           52.8083       57.0306             8.00%
*   140+   77                           53.3265       57.0303             6.95%
    230   164       56.1592   144       53.3265       57.0300     6790    6.95%
*   240+  152                           53.7890       57.0300             6.03%
*   250+  162                           53.8649       57.0300             5.88%
*   280+  188                           54.4553       57.0300             4.73%
*   380+  282                           54.4557       57.0299             4.73%
    480   370       56.5919   189       54.4557       57.0297    12022    4.73%
*   520+  344                           54.7251       57.0295             4.21%
*   520+  344                           54.7255       57.0295             4.21%
*   520+  344                           54.7270       57.0295             4.21%
*   530+  354                           54.7286       57.0295             4.20%
*   530+  354                           54.7287       57.0295             4.20%
*   600+  413                           54.7334       57.0292             4.19%
*   670+  450                           54.8650       57.0292             3.94%
*   710+  421                           55.4372       57.0292             2.87%
    720   430       57.0256   219       55.4372       57.0291    17675    2.87%
*   810+  506                           55.4401       57.0290             2.87%
*   830+  402                           55.9422       57.0290             1.94%
*   830+  400                           55.9456       57.0290             1.94%
    860   429       56.5937   198       55.9456       57.0289    23752    1.94%
*   930+  489                           55.9465       57.0288             1.93%
    984   537       56.9782   167       55.9465       57.0287    29496    1.93%

Performing restart 1

Repeating presolve.
Tried aggregator 2 times.
MIP Presolve eliminated 0 rows and 14 columns.
MIP Presolve modified 299 coefficients.
Aggregator did 3 substitutions.
Reduced MIP has 383 rows, 421 columns, and 1448 nonzeros.
Reduced MIP has 367 binaries, 32 generals, 0 SOSs, and 0 indicators.
Presolve time = 0.00 sec. (1.83 ticks)
Tried aggregator 1 time.
MIP Presolve eliminated 8 rows and 1 columns.
MIP Presolve modified 70 coefficients.
Reduced MIP has 375 rows, 420 columns, and 1432 nonzeros.
Reduced MIP has 366 binaries, 32 generals, 0 SOSs, and 0 indicators.
Presolve time = 0.00 sec. (1.11 ticks)
Represolve time = 0.01 sec. (7.04 ticks)
   1040     0       56.9304   174       55.9465     Cuts: 175    33721    1.76%
   1040     0       56.5064   174       55.9465     Cuts: 124    33892    1.00%
   1040     0       56.5017   174       55.9465     Cuts: 140    34056    0.99%
   1040     0       56.5004   174       55.9465      Cuts: 91    34184    0.99%
   1040     0       56.4992   174       55.9465      Cuts: 81    34305    0.99%
   1040     0       56.4986   174       55.9465      Cuts: 55    34386    0.99%
   1040     0       56.4982   174       55.9465      Cuts: 75    34461    0.99%
   1040     0       56.4978   174       55.9465      Cuts: 52    34528    0.99%
   1040     0       56.4974   174       55.9465      Cuts: 69    34619    0.98%
   1040     0       56.4969   174       55.9465      Cuts: 64    34733    0.98%
   1040     0       56.4968   174       55.9465      Cuts: 44    34799    0.98%
*  1040+    0                           55.9469       56.4968             0.98%
   1040     0       56.4964   174       55.9469      Cuts: 39    34912    0.98%
   1040     0       56.4962   174       55.9469      Cuts: 29    34960    0.98%
   1040     0       56.4959   174       55.9469      Cuts: 34    35019    0.98%
   1040     0       56.4959   174       55.9469      Cuts: 16    35040    0.98%
*  1040+    0                           55.9475       56.4959             0.98%
   1040     2       56.4959   150       55.9475       56.4959    35040    0.98%
   1048    10       56.4952   132       55.9475       56.4958    35406    0.98%
   1062    24       56.4927    94       55.9475       56.4958    35794    0.98%
   1110    52       56.4953   108       55.9475       56.4954    37806    0.98%
   1503   280       56.1358   111       55.9475       56.4925    52452    0.97%
Elapsed time = 3.89 sec. (4303.99 ticks, tree = 0.28 MB, solutions = 24)
*  1770+   71                           56.4398       56.4593             0.03%
*  1820+  105                           56.4406       56.4589             0.03%
*  1840+  122                           56.4407       56.4589             0.03%
*  1940+  176                           56.4407       56.4573             0.03%
   2116   264       56.4471    50       56.4407       56.4545    69831    0.02%
*  2585   527      integral     0       56.4408       56.4511    72975    0.02%
*  3150+  914                           56.4408       56.4502             0.02%
*  3250+  980                           56.4409       56.4500             0.02%
*  3290+ 1008                           56.4409       56.4499             0.02%
   4095  1532       56.4421    30       56.4409       56.4484    81929    0.01%
   5970  2599       56.4426    31       56.4409       56.4471    94434    0.01%
*  6950  3096      integral     0       56.4409       56.4468   100800    0.01%
*  7050+ 3144                           56.4410       56.4467             0.01%
*  7160  3197      integral     0       56.4410       56.4467   101847    0.01%

GUB cover cuts applied:  12
Clique cuts applied:  55
Implied bound cuts applied:  16
Flow cuts applied:  8
Mixed integer rounding cuts applied:  52
Zero-half cuts applied:  14
Lift and project cuts applied:  18
Gomory fractional cuts applied:  14

Root node processing (before b&c):
  Real time             =    0.15 sec. (150.15 ticks)
Sequential b&c:
  Real time             =    7.10 sec. (7612.38 ticks)
                          ------------
Total (root+branch&cut) =    7.25 sec. (7762.52 ticks)

Solution pool: 36 solutions saved.

MIP - Integer optimal, tolerance (0.0001/1e-06):  Objective =  5.6441021915e+01
Current MIP best bound =  5.6446665248e+01 (gap = 0.00564333, 0.01%)
Solution time =    7.25 sec.  Iterations = 102477  Nodes = 7263 (3241)
Deterministic time = 7762.53 ticks  (1071.16 ticks/sec)


Incumbent solution
Variable Name           Solution Value
F                            84.000000
f1                            0.938978
f2                           26.620000
y204                          1.000000
y170                          1.000000
y263                          1.000000
y3                            1.000000
y193                          1.000000
y228                          1.000000
y239                          1.000000
y186                          1.000000
y81                           1.000000
y14                           1.000000
y244                          1.000000
y138                          1.000000
y182                          1.000000
y127                          1.000000
y201                          1.000000
y268                          1.000000
y52                           1.000000
y91                           1.000000
y224                          1.000000
y171                          1.000000
s204                          7.188766
s226                          6.240000
s60                           6.280000
s170                          6.734245
s263                          6.290000
s3                            6.782147
s193                          6.672256
s228                          7.304907
s239                          6.608200
s186                          6.849108
s81                           6.813404
s14                           7.654867
s244                          6.871640
s138                          7.585674
s182                          6.840000
s127                          6.917390
s201                          7.864038
s268                          7.925388
s52                           7.978333
s91                           7.977018
s224                          8.013371
s171                          7.944718
x241x239x1                    1.000000
x69x186x1                     1.000000
x185x186x1                    1.000000
x58x244x1                     1.000000
x74x3x1                       1.000000
x217x171x1                    1.000000
x17x228x1                     1.000000
x169x263x1                    1.000000
x106x3x1                      1.000000
x241x239x2                    1.000000
x185x81x2                     1.000000
x58x244x2                     1.000000
x74x204x2                     1.000000
x124x170x2                    1.000000
x17x204x2                     1.000000
x169x263x2                    1.000000
x203x170x2                    1.000000
x203x182x2                    1.000000
x132x193x3                    2.000000
x69x81x3                      1.000000
x124x127x3                    1.000000
x217x91x3                     1.000000
x23x138x3                     2.000000
x120x182x3                    1.000000
x106x127x3                    1.000000
x204x0x2                      2.000000
x170x224x2                    2.000000
x263x228x1                    1.000000
x263x14x2                     1.000000
x3x0x1                        1.000000
x3x52x1                       1.000000
x193x0x3                      2.000000
x228x0x1                      2.000000
x239x171x1                    1.000000
x239x14x2                     1.000000
x186x0x1                      2.000000
x81x52x2                      1.000000
x81x0x3                       1.000000
x14x0x2                       2.000000
x244x268x1                    1.000000
x244x268x2                    1.000000
x138x0x3                      2.000000
x182x201x2                    1.000000
x182x201x3                    1.000000
x127x0x3                      1.000000
x127x91x3                     1.000000
x201x0x2                      1.000000
x201x0x3                      1.000000
x268x0x1                      1.000000
x268x0x2                      1.000000
x52x0x1                       1.000000
x52x0x2                       1.000000
x91x0x3                       2.000000
x224x0x2                      2.000000
x171x0x1                      2.000000
s132                          5.225715
z132z193z3                    1.000000
z132z91z3                     1.000000
s241                          5.140743
z241z239z1                    1.000000
z241z239z2                    1.000000
z241z14z2                     1.000000
z241z224z2                    1.000000
z241z171z1                    1.000000
s69                           5.342584
z69z186z1                     1.000000
z69z81z3                      1.000000
s185                          5.203475
z185z186z1                    1.000000
z185z81z2                     1.000000
s58                           5.305786
z58z244z1                     1.000000
z58z244z2                     1.000000
z58z224z2                     1.000000
z58z171z1                     1.000000
s74                           5.347696
z74z204z2                     1.000000
z74z3z1                       1.000000
z74z224z2                     1.000000
z74z171z1                     1.000000
s124                          5.301252
z124z170z2                    1.000000
z124z127z3                    1.000000
z124z91z3                     1.000000
z124z224z2                    1.000000
s217                          5.989875
z217z91z3                     1.000000
z217z171z1                    1.000000
s23                           5.995946
z23z138z3                     1.000000
z23z91z3                      1.000000
s17                           5.855728
z17z204z2                     1.000000
z17z228z1                     1.000000
s120                          3.594230
z120z193z3                    1.000000
z120z138z3                    1.000000
z120z182z3                    1.000000
z120z127z3                    1.000000
z120z91z3                     1.000000
s169                          4.849360
z169z263z1                    1.000000
z169z263z2                    1.000000
z169z3z1                      1.000000
z169z228z1                    1.000000
z169z186z1                    1.000000
z169z14z2                     1.000000
z169z224z2                    1.000000
z169z171z1                    1.000000
s203                          5.076650
z203z170z2                    1.000000
z203z182z2                    1.000000
z203z224z2                    1.000000
s106                          5.147920
z106z3z1                      1.000000
z106z127z3                    1.000000
z106z91z3                     1.000000
z106z171z1                    1.000000
z170z224z2                    1.000000
z263z228z1                    1.000000
z263z14z2                     1.000000
z3z52z1                       1.000000
z239z14z2                     1.000000
z239z171z1                    1.000000
z81z52z2                      1.000000
z244z268z1                    1.000000
z244z268z2                    1.000000
z182z201z2                    1.000000
z182z201z3                    1.000000
z127z91z3                     1.000000
All other variables in the range 1-868 are 0.
